NAME : rat195.tour
COMMENT : Optimum tour for rat195.tsp (Length 2323)
TYPE : TOUR
DIMENSION : 195
TOUR_SECTION
57
58
71
70
69
68
67
66
79
80
81
82
83
84
97
96
95
94
93
92
105
106
107
108
109
110
122
121
120
119
118
131
132
133
134
147
148
149
150
151
152
153
166
165
164
163
162
161
175
174
173
172
159
160
146
145
144
158
157
170
171
183
184
185
186
187
188
189
190
176
177
178
179
192
191
193
194
195
182
181
180
167
168
169
156
155
154
141
140
139
138
137
136
135
123
124
125
126
127
128
129
142
143
130
117
116
115
114
113
112
111
98
99
100
101
102
103
104
91
90
89
88
87
86
85
72
73
74
75
76
77
78
65
64
63
62
61
60
59
45
46
47
48
49
50
51
52
39
38
37
36
35
22
23
24
25
26
13
12
11
10
9
8
7
6
5
4
3
2
1
15
14
27
28
29
16
17
18
19
20
21
34
33
32
31
30
44
43
42
41
40
53
54
55
56
-1
EOF
